n = 221;
rows = 637;
supports = [|
  {1},{1},
 |{1},14..209,
 |{2},{2},
 |{2},15..210,
 |{3},{3},
 |{3},16..211,
 |{4},{4},
 |{4},17..212,
 |{5},{5},
 |{5},18..213,
 |{6},{6},
 |{6},19..214,
 |{7},{7},
 |{7},20..215,
 |{8},{8},
 |{8},21..216,
 |{9},{9},
 |{9},22..217,
 |{10},{10},
 |{10},23..218,
 |{11},{11},
 |{11},24..219,
 |{12},{12},
 |{12},25..220,
 |{13},{13},
 |{13},26..221,
 |{14},{14},
 |{14},{1},
 |{14},27..221,
 |{15},{15},
 |{15},1..2,
 |{15},28..221,
 |{16},{16},
 |{16},1..3,
 |{16},29..221,
 |{17},{17},
 |{17},1..4,
 |{17},30..221,
 |{18},{18},
 |{18},1..5,
 |{18},31..221,
 |{19},{19},
 |{19},1..6,
 |{19},32..221,
 |{20},{20},
 |{20},1..7,
 |{20},33..221,
 |{21},{21},
 |{21},1..8,
 |{21},34..221,
 |{22},{22},
 |{22},1..9,
 |{22},35..221,
 |{23},{23},
 |{23},1..10,
 |{23},36..221,
 |{24},{24},
 |{24},1..11,
 |{24},37..221,
 |{25},{25},
 |{25},1..12,
 |{25},38..221,
 |{26},{26},
 |{26},1..13,
 |{26},39..221,
 |{27},{27},
 |{27},1..14,
 |{27},40..221,
 |{28},{28},
 |{28},1..15,
 |{28},41..221,
 |{29},{29},
 |{29},1..16,
 |{29},42..221,
 |{30},{30},
 |{30},1..17,
 |{30},43..221,
 |{31},{31},
 |{31},1..18,
 |{31},44..221,
 |{32},{32},
 |{32},1..19,
 |{32},45..221,
 |{33},{33},
 |{33},1..20,
 |{33},46..221,
 |{34},{34},
 |{34},1..21,
 |{34},47..221,
 |{35},{35},
 |{35},1..22,
 |{35},48..221,
 |{36},{36},
 |{36},1..23,
 |{36},49..221,
 |{37},{37},
 |{37},1..24,
 |{37},50..221,
 |{38},{38},
 |{38},1..25,
 |{38},51..221,
 |{39},{39},
 |{39},1..26,
 |{39},52..221,
 |{40},{40},
 |{40},1..27,
 |{40},53..221,
 |{41},{41},
 |{41},1..28,
 |{41},54..221,
 |{42},{42},
 |{42},1..29,
 |{42},55..221,
 |{43},{43},
 |{43},1..30,
 |{43},56..221,
 |{44},{44},
 |{44},1..31,
 |{44},57..221,
 |{45},{45},
 |{45},1..32,
 |{45},58..221,
 |{46},{46},
 |{46},1..33,
 |{46},59..221,
 |{47},{47},
 |{47},1..34,
 |{47},60..221,
 |{48},{48},
 |{48},1..35,
 |{48},61..221,
 |{49},{49},
 |{49},1..36,
 |{49},62..221,
 |{50},{50},
 |{50},1..37,
 |{50},63..221,
 |{51},{51},
 |{51},1..38,
 |{51},64..221,
 |{52},{52},
 |{52},1..39,
 |{52},65..221,
 |{53},{53},
 |{53},1..40,
 |{53},66..221,
 |{54},{54},
 |{54},1..41,
 |{54},67..221,
 |{55},{55},
 |{55},1..42,
 |{55},68..221,
 |{56},{56},
 |{56},1..43,
 |{56},69..221,
 |{57},{57},
 |{57},1..44,
 |{57},70..221,
 |{58},{58},
 |{58},1..45,
 |{58},71..221,
 |{59},{59},
 |{59},1..46,
 |{59},72..221,
 |{60},{60},
 |{60},1..47,
 |{60},73..221,
 |{61},{61},
 |{61},1..48,
 |{61},74..221,
 |{62},{62},
 |{62},1..49,
 |{62},75..221,
 |{63},{63},
 |{63},1..50,
 |{63},76..221,
 |{64},{64},
 |{64},1..51,
 |{64},77..221,
 |{65},{65},
 |{65},1..52,
 |{65},78..221,
 |{66},{66},
 |{66},1..53,
 |{66},79..221,
 |{67},{67},
 |{67},1..54,
 |{67},80..221,
 |{68},{68},
 |{68},1..55,
 |{68},81..221,
 |{69},{69},
 |{69},1..56,
 |{69},82..221,
 |{70},{70},
 |{70},1..57,
 |{70},83..221,
 |{71},{71},
 |{71},1..58,
 |{71},84..221,
 |{72},{72},
 |{72},1..59,
 |{72},85..221,
 |{73},{73},
 |{73},1..60,
 |{73},86..221,
 |{74},{74},
 |{74},1..61,
 |{74},87..221,
 |{75},{75},
 |{75},1..62,
 |{75},88..221,
 |{76},{76},
 |{76},1..63,
 |{76},89..221,
 |{77},{77},
 |{77},1..64,
 |{77},90..221,
 |{78},{78},
 |{78},1..65,
 |{78},91..221,
 |{79},{79},
 |{79},1..66,
 |{79},92..221,
 |{80},{80},
 |{80},1..67,
 |{80},93..221,
 |{81},{81},
 |{81},1..68,
 |{81},94..221,
 |{82},{82},
 |{82},1..69,
 |{82},95..221,
 |{83},{83},
 |{83},1..70,
 |{83},96..221,
 |{84},{84},
 |{84},1..71,
 |{84},97..221,
 |{85},{85},
 |{85},1..72,
 |{85},98..221,
 |{86},{86},
 |{86},1..73,
 |{86},99..221,
 |{87},{87},
 |{87},1..74,
 |{87},100..221,
 |{88},{88},
 |{88},1..75,
 |{88},101..221,
 |{89},{89},
 |{89},1..76,
 |{89},102..221,
 |{90},{90},
 |{90},1..77,
 |{90},103..221,
 |{91},{91},
 |{91},1..78,
 |{91},104..221,
 |{92},{92},
 |{92},1..79,
 |{92},105..221,
 |{93},{93},
 |{93},1..80,
 |{93},106..221,
 |{94},{94},
 |{94},1..81,
 |{94},107..221,
 |{95},{95},
 |{95},1..82,
 |{95},108..221,
 |{96},{96},
 |{96},1..83,
 |{96},109..221,
 |{97},{97},
 |{97},1..84,
 |{97},110..221,
 |{98},{98},
 |{98},1..85,
 |{98},111..221,
 |{99},{99},
 |{99},1..86,
 |{99},112..221,
 |{100},{100},
 |{100},1..87,
 |{100},113..221,
 |{101},{101},
 |{101},1..88,
 |{101},114..221,
 |{102},{102},
 |{102},1..89,
 |{102},115..221,
 |{103},{103},
 |{103},1..90,
 |{103},116..221,
 |{104},{104},
 |{104},1..91,
 |{104},117..221,
 |{105},{105},
 |{105},1..92,
 |{105},118..221,
 |{106},{106},
 |{106},1..93,
 |{106},119..221,
 |{107},{107},
 |{107},1..94,
 |{107},120..221,
 |{108},{108},
 |{108},1..95,
 |{108},121..221,
 |{109},{109},
 |{109},1..96,
 |{109},122..221,
 |{110},{110},
 |{110},1..97,
 |{110},123..221,
 |{111},{111},
 |{111},1..98,
 |{111},124..221,
 |{112},{112},
 |{112},1..99,
 |{112},125..221,
 |{113},{113},
 |{113},1..100,
 |{113},126..221,
 |{114},{114},
 |{114},1..101,
 |{114},127..221,
 |{115},{115},
 |{115},1..102,
 |{115},128..221,
 |{116},{116},
 |{116},1..103,
 |{116},129..221,
 |{117},{117},
 |{117},1..104,
 |{117},130..221,
 |{118},{118},
 |{118},1..105,
 |{118},131..221,
 |{119},{119},
 |{119},1..106,
 |{119},132..221,
 |{120},{120},
 |{120},1..107,
 |{120},133..221,
 |{121},{121},
 |{121},1..108,
 |{121},134..221,
 |{122},{122},
 |{122},1..109,
 |{122},135..221,
 |{123},{123},
 |{123},1..110,
 |{123},136..221,
 |{124},{124},
 |{124},1..111,
 |{124},137..221,
 |{125},{125},
 |{125},1..112,
 |{125},138..221,
 |{126},{126},
 |{126},1..113,
 |{126},139..221,
 |{127},{127},
 |{127},1..114,
 |{127},140..221,
 |{128},{128},
 |{128},1..115,
 |{128},141..221,
 |{129},{129},
 |{129},1..116,
 |{129},142..221,
 |{130},{130},
 |{130},1..117,
 |{130},143..221,
 |{131},{131},
 |{131},1..118,
 |{131},144..221,
 |{132},{132},
 |{132},1..119,
 |{132},145..221,
 |{133},{133},
 |{133},1..120,
 |{133},146..221,
 |{134},{134},
 |{134},1..121,
 |{134},147..221,
 |{135},{135},
 |{135},1..122,
 |{135},148..221,
 |{136},{136},
 |{136},1..123,
 |{136},149..221,
 |{137},{137},
 |{137},1..124,
 |{137},150..221,
 |{138},{138},
 |{138},1..125,
 |{138},151..221,
 |{139},{139},
 |{139},1..126,
 |{139},152..221,
 |{140},{140},
 |{140},1..127,
 |{140},153..221,
 |{141},{141},
 |{141},1..128,
 |{141},154..221,
 |{142},{142},
 |{142},1..129,
 |{142},155..221,
 |{143},{143},
 |{143},1..130,
 |{143},156..221,
 |{144},{144},
 |{144},1..131,
 |{144},157..221,
 |{145},{145},
 |{145},1..132,
 |{145},158..221,
 |{146},{146},
 |{146},1..133,
 |{146},159..221,
 |{147},{147},
 |{147},1..134,
 |{147},160..221,
 |{148},{148},
 |{148},1..135,
 |{148},161..221,
 |{149},{149},
 |{149},1..136,
 |{149},162..221,
 |{150},{150},
 |{150},1..137,
 |{150},163..221,
 |{151},{151},
 |{151},1..138,
 |{151},164..221,
 |{152},{152},
 |{152},1..139,
 |{152},165..221,
 |{153},{153},
 |{153},1..140,
 |{153},166..221,
 |{154},{154},
 |{154},1..141,
 |{154},167..221,
 |{155},{155},
 |{155},1..142,
 |{155},168..221,
 |{156},{156},
 |{156},1..143,
 |{156},169..221,
 |{157},{157},
 |{157},1..144,
 |{157},170..221,
 |{158},{158},
 |{158},1..145,
 |{158},171..221,
 |{159},{159},
 |{159},1..146,
 |{159},172..221,
 |{160},{160},
 |{160},1..147,
 |{160},173..221,
 |{161},{161},
 |{161},1..148,
 |{161},174..221,
 |{162},{162},
 |{162},1..149,
 |{162},175..221,
 |{163},{163},
 |{163},1..150,
 |{163},176..221,
 |{164},{164},
 |{164},1..151,
 |{164},177..221,
 |{165},{165},
 |{165},1..152,
 |{165},178..221,
 |{166},{166},
 |{166},1..153,
 |{166},179..221,
 |{167},{167},
 |{167},1..154,
 |{167},180..221,
 |{168},{168},
 |{168},1..155,
 |{168},181..221,
 |{169},{169},
 |{169},1..156,
 |{169},182..221,
 |{170},{170},
 |{170},1..157,
 |{170},183..221,
 |{171},{171},
 |{171},1..158,
 |{171},184..221,
 |{172},{172},
 |{172},1..159,
 |{172},185..221,
 |{173},{173},
 |{173},1..160,
 |{173},186..221,
 |{174},{174},
 |{174},1..161,
 |{174},187..221,
 |{175},{175},
 |{175},1..162,
 |{175},188..221,
 |{176},{176},
 |{176},1..163,
 |{176},189..221,
 |{177},{177},
 |{177},1..164,
 |{177},190..221,
 |{178},{178},
 |{178},1..165,
 |{178},191..221,
 |{179},{179},
 |{179},1..166,
 |{179},192..221,
 |{180},{180},
 |{180},1..167,
 |{180},193..221,
 |{181},{181},
 |{181},1..168,
 |{181},194..221,
 |{182},{182},
 |{182},1..169,
 |{182},195..221,
 |{183},{183},
 |{183},1..170,
 |{183},196..221,
 |{184},{184},
 |{184},1..171,
 |{184},197..221,
 |{185},{185},
 |{185},1..172,
 |{185},198..221,
 |{186},{186},
 |{186},1..173,
 |{186},199..221,
 |{187},{187},
 |{187},1..174,
 |{187},200..221,
 |{188},{188},
 |{188},1..175,
 |{188},201..221,
 |{189},{189},
 |{189},1..176,
 |{189},202..221,
 |{190},{190},
 |{190},1..177,
 |{190},203..221,
 |{191},{191},
 |{191},1..178,
 |{191},204..221,
 |{192},{192},
 |{192},1..179,
 |{192},205..221,
 |{193},{193},
 |{193},1..180,
 |{193},206..221,
 |{194},{194},
 |{194},1..181,
 |{194},207..221,
 |{195},{195},
 |{195},1..182,
 |{195},208..221,
 |{196},{196},
 |{196},1..183,
 |{196},209..221,
 |{197},{197},
 |{197},1..184,
 |{197},210..221,
 |{198},{198},
 |{198},1..185,
 |{198},211..221,
 |{199},{199},
 |{199},1..186,
 |{199},212..221,
 |{200},{200},
 |{200},1..187,
 |{200},213..221,
 |{201},{201},
 |{201},1..188,
 |{201},214..221,
 |{202},{202},
 |{202},1..189,
 |{202},215..221,
 |{203},{203},
 |{203},1..190,
 |{203},216..221,
 |{204},{204},
 |{204},1..191,
 |{204},217..221,
 |{205},{205},
 |{205},1..192,
 |{205},218..221,
 |{206},{206},
 |{206},1..193,
 |{206},219..221,
 |{207},{207},
 |{207},1..194,
 |{207},220..221,
 |{208},{208},
 |{208},1..195,
 |{208},{221},
 |{209},{209},
 |{209},1..196,
 |{210},{210},
 |{210},2..197,
 |{211},{211},
 |{211},3..198,
 |{212},{212},
 |{212},4..199,
 |{213},{213},
 |{213},5..200,
 |{214},{214},
 |{214},6..201,
 |{215},{215},
 |{215},7..202,
 |{216},{216},
 |{216},8..203,
 |{217},{217},
 |{217},9..204,
 |{218},{218},
 |{218},10..205,
 |{219},{219},
 |{219},11..206,
 |{220},{220},
 |{220},12..207,
 |{221},{221},
 |{221},13..208 |];

t = 704;

indexes = [|
    0,10,
  | 0,49,
  | 0,73,
  | 0,156,
  | 0,189,
  | 1,5,
  | 1,31,
  | 1,34,
  | 1,64,
  | 1,113,
  | 1,157,
  | 1,180,
  | 1,197,
  | 2,18,
  | 2,64,
  | 2,84,
  | 2,87,
  | 2,157,
  | 3,43,
  | 3,67,
  | 3,68,
  | 3,77,
  | 3,80,
  | 3,86,
  | 3,102,
  | 3,118,
  | 3,130,
  | 3,137,
  | 3,154,
  | 4,7,
  | 4,122,
  | 4,124,
  | 4,202,
  | 4,203,
  | 5,20,
  | 5,34,
  | 5,150,
  | 5,156,
  | 5,157,
  | 5,200,
  | 6,48,
  | 6,69,
  | 6,78,
  | 6,134,
  | 6,182,
  | 7,56,
  | 7,122,
  | 7,124,
  | 7,185,
  | 7,202,
  | 7,203,
  | 7,209,
  | 8,28,
  | 8,41,
  | 8,63,
  | 8,111,
  | 8,204,
  | 9,42,
  | 9,61,
  | 9,128,
  | 9,143,
  | 9,145,
  | 9,152,
  | 9,173,
  | 9,183,
  | 10,19,
  | 10,26,
  | 10,54,
  | 10,156,
  | 10,172,
  | 10,189,
  | 10,198,
  | 10,200,
  | 10,220,
  | 11,14,
  | 11,24,
  | 11,27,
  | 11,139,
  | 11,149,
  | 11,163,
  | 11,188,
  | 11,210,
  | 12,22,
  | 12,44,
  | 12,47,
  | 12,52,
  | 12,76,
  | 12,77,
  | 12,80,
  | 12,123,
  | 12,130,
  | 13,81,
  | 13,84,
  | 13,96,
  | 13,180,
  | 13,199,
  | 14,24,
  | 14,27,
  | 14,39,
  | 14,129,
  | 14,163,
  | 14,170,
  | 14,210,
  | 15,55,
  | 15,88,
  | 15,106,
  | 15,120,
  | 15,135,
  | 15,165,
  | 15,177,
  | 16,78,
  | 16,133,
  | 16,134,
  | 16,140,
  | 16,171,
  | 16,217,
  | 16,218,
  | 17,66,
  | 17,175,
  | 17,176,
  | 17,201,
  | 17,219,
  | 18,26,
  | 18,64,
  | 18,157,
  | 18,200,
  | 19,26,
  | 19,172,
  | 19,198,
  | 19,200,
  | 20,34,
  | 20,117,
  | 20,150,
  | 20,156,
  | 20,200,
  | 21,29,
  | 21,30,
  | 21,96,
  | 21,115,
  | 21,155,
  | 21,181,
  | 22,32,
  | 22,42,
  | 22,47,
  | 22,102,
  | 22,130,
  | 22,152,
  | 22,195,
  | 23,51,
  | 23,85,
  | 23,112,
  | 23,125,
  | 23,151,
  | 23,187,
  | 23,206,
  | 24,27,
  | 24,39,
  | 24,85,
  | 24,112,
  | 25,29,
  | 25,30,
  | 25,50,
  | 25,95,
  | 25,103,
  | 25,121,
  | 25,212,
  | 26,157,
  | 26,200,
  | 27,85,
  | 27,139,
  | 27,142,
  | 27,149,
  | 28,63,
  | 28,111,
  | 28,133,
  | 28,140,
  | 28,217,
  | 29,30,
  | 29,95,
  | 29,115,
  | 30,81,
  | 30,95,
  | 30,115,
  | 30,121,
  | 30,212,
  | 31,34,
  | 31,113,
  | 31,180,
  | 31,197,
  | 32,42,
  | 32,47,
  | 32,105,
  | 32,109,
  | 32,152,
  | 32,183,
  | 32,195,
  | 33,44,
  | 33,57,
  | 33,76,
  | 33,82,
  | 33,114,
  | 33,187,
  | 33,190,
  | 33,206,
  | 34,116,
  | 34,150,
  | 34,157,
  | 34,197,
  | 35,84,
  | 35,87,
  | 35,96,
  | 35,199,
  | 35,213,
  | 36,37,
  | 36,41,
  | 36,104,
  | 36,132,
  | 36,204,
  | 37,41,
  | 37,104,
  | 37,132,
  | 37,174,
  | 37,204,
  | 37,207,
  | 38,57,
  | 38,114,
  | 38,151,
  | 38,155,
  | 38,181,
  | 38,187,
  | 39,112,
  | 39,129,
  | 39,170,
  | 40,50,
  | 40,51,
  | 40,79,
  | 40,147,
  | 40,193,
  | 40,215,
  | 41,63,
  | 41,204,
  | 42,67,
  | 42,102,
  | 42,130,
  | 42,152,
  | 42,173,
  | 43,62,
  | 43,68,
  | 43,93,
  | 43,137,
  | 43,146,
  | 43,164,
  | 44,47,
  | 44,76,
  | 44,190,
  | 44,195,
  | 45,66,
  | 45,98,
  | 45,107,
  | 45,110,
  | 45,141,
  | 45,148,
  | 45,159,
  | 45,175,
  | 46,83,
  | 46,93,
  | 46,146,
  | 47,52,
  | 47,76,
  | 47,123,
  | 47,130,
  | 47,190,
  | 47,195,
  | 48,69,
  | 48,119,
  | 48,178,
  | 48,182,
  | 49,54,
  | 49,59,
  | 49,73,
  | 49,90,
  | 49,171,
  | 49,189,
  | 50,58,
  | 50,79,
  | 50,95,
  | 50,103,
  | 50,136,
  | 50,147,
  | 50,212,
  | 51,58,
  | 51,85,
  | 51,112,
  | 51,125,
  | 51,147,
  | 51,193,
  | 52,77,
  | 52,80,
  | 52,123,
  | 53,61,
  | 53,128,
  | 53,145,
  | 53,194,
  | 53,196,
  | 54,59,
  | 54,172,
  | 54,189,
  | 54,220,
  | 55,88,
  | 55,100,
  | 55,135,
  | 55,161,
  | 56,124,
  | 56,141,
  | 56,148,
  | 56,209,
  | 57,82,
  | 57,114,
  | 57,151,
  | 57,187,
  | 57,206,
  | 58,95,
  | 58,125,
  | 58,147,
  | 59,90,
  | 59,99,
  | 59,133,
  | 59,171,
  | 59,189,
  | 60,70,
  | 60,96,
  | 60,114,
  | 60,181,
  | 60,213,
  | 61,128,
  | 61,163,
  | 61,183,
  | 61,188,
  | 61,194,
  | 61,210,
  | 62,68,
  | 62,97,
  | 62,164,
  | 62,192,
  | 62,214,
  | 63,99,
  | 63,111,
  | 63,133,
  | 63,140,
  | 63,174,
  | 63,204,
  | 64,84,
  | 64,87,
  | 64,113,
  | 64,157,
  | 65,91,
  | 65,100,
  | 65,135,
  | 65,179,
  | 65,211,
  | 66,98,
  | 66,107,
  | 66,159,
  | 66,162,
  | 66,175,
  | 66,201,
  | 67,68,
  | 67,102,
  | 67,143,
  | 67,167,
  | 67,173,
  | 68,74,
  | 68,86,
  | 68,154,
  | 68,167,
  | 68,214,
  | 69,119,
  | 69,138,
  | 69,178,
  | 69,182,
  | 69,184,
  | 70,72,
  | 70,82,
  | 70,114,
  | 70,181,
  | 71,94,
  | 71,134,
  | 71,158,
  | 71,182,
  | 71,184,
  | 71,205,
  | 72,77,
  | 72,80,
  | 72,82,
  | 72,114,
  | 73,90,
  | 73,94,
  | 73,189,
  | 73,205,
  | 74,97,
  | 74,143,
  | 74,145,
  | 74,167,
  | 74,169,
  | 74,192,
  | 74,214,
  | 75,120,
  | 75,127,
  | 75,166,
  | 75,168,
  | 76,77,
  | 76,82,
  | 77,80,
  | 77,82,
  | 77,118,
  | 77,130,
  | 77,137,
  | 78,134,
  | 78,182,
  | 78,218,
  | 79,103,
  | 79,136,
  | 79,138,
  | 79,147,
  | 79,178,
  | 79,215,
  | 79,216,
  | 80,82,
  | 80,137,
  | 81,96,
  | 81,115,
  | 81,121,
  | 81,199,
  | 82,114,
  | 83,127,
  | 83,131,
  | 83,146,
  | 83,166,
  | 83,169,
  | 83,192,
  | 84,87,
  | 84,113,
  | 84,180,
  | 84,199,
  | 85,92,
  | 85,112,
  | 85,142,
  | 85,193,
  | 86,91,
  | 86,118,
  | 86,154,
  | 86,160,
  | 87,199,
  | 88,106,
  | 88,126,
  | 88,161,
  | 88,165,
  | 88,191,
  | 89,116,
  | 89,117,
  | 89,138,
  | 89,150,
  | 89,184,
  | 89,216,
  | 90,94,
  | 90,134,
  | 90,171,
  | 90,205,
  | 91,135,
  | 91,154,
  | 91,160,
  | 91,179,
  | 91,211,
  | 92,142,
  | 92,193,
  | 92,208,
  | 92,215,
  | 93,137,
  | 93,146,
  | 94,134,
  | 94,158,
  | 94,171,
  | 94,182,
  | 94,205,
  | 95,147,
  | 96,115,
  | 96,155,
  | 96,181,
  | 96,199,
  | 96,213,
  | 97,108,
  | 97,153,
  | 97,166,
  | 97,169,
  | 97,192,
  | 97,214,
  | 98,141,
  | 98,148,
  | 98,175,
  | 99,133,
  | 99,171,
  | 99,174,
  | 100,135,
  | 101,108,
  | 101,135,
  | 101,166,
  | 101,168,
  | 101,177,
  | 101,211,
  | 102,130,
  | 102,173,
  | 103,136,
  | 103,212,
  | 104,132,
  | 104,172,
  | 104,198,
  | 104,207,
  | 104,220,
  | 105,109,
  | 105,129,
  | 105,144,
  | 105,170,
  | 105,190,
  | 105,195,
  | 105,210,
  | 106,126,
  | 106,165,
  | 106,191,
  | 107,159,
  | 107,162,
  | 107,201,
  | 108,153,
  | 108,166,
  | 108,168,
  | 108,192,
  | 108,211,
  | 109,152,
  | 109,170,
  | 109,183,
  | 109,195,
  | 109,210,
  | 110,148,
  | 110,159,
  | 110,185,
  | 110,209,
  | 111,140,
  | 111,217,
  | 112,129,
  | 112,187,
  | 112,206,
  | 113,180,
  | 114,155,
  | 114,181,
  | 115,121,
  | 116,150,
  | 116,197,
  | 117,150,
  | 117,158,
  | 117,184,
  | 118,160,
  | 119,178,
  | 119,208,
  | 119,215,
  | 120,165,
  | 120,168,
  | 120,177,
  | 121,212,
  | 122,185,
  | 122,202,
  | 122,209,
  | 124,203,
  | 124,209,
  | 125,147,
  | 125,151,
  | 125,187,
  | 126,186,
  | 126,191,
  | 126,219,
  | 127,166,
  | 127,168,
  | 127,192,
  | 128,143,
  | 128,145,
  | 128,183,
  | 128,194,
  | 128,196,
  | 129,144,
  | 129,170,
  | 129,206,
  | 131,145,
  | 131,169,
  | 131,192,
  | 131,196,
  | 132,172,
  | 132,198,
  | 133,140,
  | 133,171,
  | 133,174,
  | 134,171,
  | 134,182,
  | 134,218,
  | 135,177,
  | 135,211,
  | 136,138,
  | 136,216,
  | 138,178,
  | 138,182,
  | 138,184,
  | 138,216,
  | 139,142,
  | 139,149,
  | 140,171,
  | 140,217,
  | 140,218,
  | 141,148,
  | 141,209,
  | 142,193,
  | 143,145,
  | 143,167,
  | 143,169,
  | 143,173,
  | 144,170,
  | 144,190,
  | 144,195,
  | 144,206,
  | 145,169,
  | 145,196,
  | 146,164,
  | 146,192,
  | 147,193,
  | 148,159,
  | 148,185,
  | 148,209,
  | 149,163,
  | 149,188,
  | 150,184,
  | 150,197,
  | 151,187,
  | 152,173,
  | 152,183,
  | 153,154,
  | 153,211,
  | 153,214,
  | 154,211,
  | 154,214,
  | 155,181,
  | 156,200,
  | 157,200,
  | 158,184,
  | 158,205,
  | 160,179,
  | 161,176,
  | 161,191,
  | 161,219,
  | 162,186,
  | 162,201,
  | 162,219,
  | 163,183,
  | 163,188,
  | 163,194,
  | 163,210,
  | 164,192,
  | 165,177,
  | 166,168,
  | 166,192,
  | 167,173,
  | 167,214,
  | 168,177,
  | 169,192,
  | 169,196,
  | 170,210,
  | 172,198,
  | 172,207,
  | 172,220,
  | 174,204,
  | 174,207,
  | 175,201,
  | 176,191,
  | 176,201,
  | 176,219,
  | 178,208,
  | 178,215,
  | 180,199,
  | 181,213,
  | 182,184,
  | 183,210,
  | 184,216,
  | 185,209,
  | 186,191,
  | 186,201,
  | 186,219,
  | 187,206,
  | 188,194,
  | 190,195,
  | 190,206,
  | 191,219,
  | 193,208,
  | 193,215,
  | 199,213,
  | 201,219,
  | 204,207,
  | 207,220,
  | 208,215,
  | 217,218 |];

